28 29 22 31 30 32 33 34 35 36 37 38 40 41 39 42 43 44 47 48 49 50 85 87 86 84 51 52 54 53 55 56 83 82 57 58 59 81 80 79 61 60 63 62 78 88 89 90 92 93 94 95 96 97 98 99 552 553 554 91 46 45 555 556 557 558 559 550 551 101 100 102 103 104 105 106 117 122 121 120 118 119 73 74 75 77 76 64 67 66 65 72 71 123 70 68 69 124 125 126 127 128 129 130 137 138 139 140 141 136 135 134 133 132 131 116 115 114 112 113 161 160 155 156 159 157 158 144 143 142 151 150 149 152 148 147 146 145 153 154 165 164 163 167 166 198 199 200 201 202 204 203 208 207 206 205 197 196 195 194 209 210 211 212 213 214 215 216 217 223 224 222 221 220 218 219 193 192 191 190 226 225 189 227 228 229 230 231 533 532 489 488 534 535 487 486 490 491 526 523 522 521 520 519 518 495 494 524 525 492 493 475 476 477 478 479 480 481 482 483 485 484 536 537 539 538 540 176 177 178 187 188 186 185 184 183 182 179 181 180 169 168 162 170 171 172 175 174 173 108 109 111 110 107 542 541 543 544 547 546 545 548 549 560 561 562 563 564 565 566 567 570 569 568 20 19 18 17 571 460 459 458 457 456 455 454 439 440 441 453 452 499 500 461 462 463 464 465 466 467 468 469 474 473 472 471 470 496 497 498 501 451 450 449 448 447 446 442 443 444 445 381 380 379 378 377 376 375 374 315 314 316 313 312 311 310 309 308 505 504 503 502 517 516 515 514 513 509 510 511 512 527 528 529 530 531 233 232 234 235 236 237 240 239 238 246 247 245 244 243 242 241 248 249 250 251 252 254 253 255 256 257 300 301 302 508 507 506 307 303 304 306 305 318 317 319 320 321 297 298 299 258 259 260 261 262 263 264 265 266 267 271 272 273 274 275 269 268 270 296 295 294 293 292 291 290 289 288 276 277 278 279 282 281 280 287 286 285 284 283 334 335 336 337 338 339 333 332 331 330 340 341 344 343 342 366 367 365 368 369 370 327 328 329 326 325 324 323 322 373 372 371 396 395 394 393 391 392 390 389 388 387 385 386 382 383 384 410 418 419 417 411 412 356 355 353 354 357 402 403 404 409 405 406 408 407 397 398 399 400 401 360 359 358 361 362 363 364 346 345 347 348 349 350 351 352 413 414 415 416 420 421 422 423 424 425 426 427 428 429 431 430 432 433 434 435 436 438 437 3 2 1 4 0 5 573 572 6 7 8 9 10 11 16 15 14 13 12 23 21 24 25 26 27